# Objective value = 6.9579999919855873e+03
I_0_0 1549
I_0_1 1.8940000056271419e+03
I_0_2 1.9369999808084215e+03
I_0_3 2.0010000000000146e+03
I_0_4 1.7659999999999998e+03
I_0_5 1.8199999999999975e+03
I_0_6 2.4589999999999973e+03
I_1_0 78
I_1_1 39
I_1_2 78
I_1_3 3.8999999999999922e+01
I_1_4 78
I_1_5 3.9000000000000014e+01
I_1_6 0
I_2_0 190
I_2_1 95
I_2_2 190
I_2_3 95
I_2_4 190
I_2_5 9.5000000000000171e+01
I_2_6 0
I_3_0 26
I_3_1 13
I_3_2 26
I_3_3 13
I_3_4 26
I_3_5 13
I_3_6 0
I_4_0 55
I_4_1 0
I_4_2 55
I_4_3 8.6376492925798990e-15
I_4_4 55
I_4_5 55
I_4_6 0
I_5_0 94
I_5_1 47
I_5_2 1.3563951168754234e-05
I_5_3 94
I_5_4 94
I_5_5 4.7000000000002650e+01
I_5_6 2.6503244043851737e-12
I_6_0 39
I_6_1 3.8999994373627132e+01
I_6_2 5.6275967637020585e-06
I_6_3 39
I_6_4 0
I_6_5 39
I_6_6 0
I_7_0 89
I_7_1 89
I_7_2 0
I_7_3 89
I_7_4 0
I_7_5 89
I_7_6 0
I_8_0 89
I_8_1 89
I_8_2 0
I_8_3 89
I_8_4 0
I_8_5 89
I_8_6 0
I_9_0 154
I_9_1 154
I_9_2 77
I_9_3 0
I_9_4 154
I_9_5 77
I_9_6 0
I_10_0 96
I_10_1 0
I_10_2 96
I_10_3 0
I_10_4 96
I_10_5 96
I_10_6 0
q_1_0_0 0
q_1_0_1 78
q_1_0_2 0
q_1_0_3 7.8000000000000128e+01
q_1_0_4 0
q_1_0_5 0
q_1_1_0 0
q_1_1_1 0
q_1_1_2 0
q_1_1_3 0
q_1_1_4 0
q_1_1_5 0
q_1_2_0 0
q_1_2_1 0
q_1_2_2 0
q_1_2_3 0
q_1_2_4 0
q_1_2_5 0
q_1_3_0 0
q_1_3_1 0
q_1_3_2 0
q_1_3_3 0
q_1_3_4 0
q_1_3_5 0
q_2_0_0 0
q_2_0_1 0
q_2_0_2 0
q_2_0_3 0
q_2_0_4 0
q_2_0_5 0
q_2_1_0 0
q_2_1_1 190
q_2_1_2 0
q_2_1_3 1.8999999999999960e+02
q_2_1_4 0
q_2_1_5 0
q_2_2_0 0
q_2_2_1 0
q_2_2_2 0
q_2_2_3 0
q_2_2_4 0
q_2_2_5 0
q_2_3_0 0
q_2_3_1 0
q_2_3_2 0
q_2_3_3 0
q_2_3_4 0
q_2_3_5 0
q_3_0_0 0
q_3_0_1 0
q_3_0_2 0
q_3_0_3 0
q_3_0_4 0
q_3_0_5 0
q_3_1_0 0
q_3_1_1 0
q_3_1_2 0
q_3_1_3 0
q_3_1_4 0
q_3_1_5 0
q_3_2_0 0
q_3_2_1 26
q_3_2_2 0
q_3_2_3 26
q_3_2_4 0
q_3_2_5 0
q_3_3_0 0
q_3_3_1 0
q_3_3_2 0
q_3_3_3 0
q_3_3_4 0
q_3_3_5 0
q_4_0_0 0
q_4_0_1 110
q_4_0_2 0
q_4_0_3 110
q_4_0_4 55
q_4_0_5 0
q_4_1_0 0
q_4_1_1 0
q_4_1_2 0
q_4_1_3 0
q_4_1_4 0
q_4_1_5 0
q_4_2_0 0
q_4_2_1 0
q_4_2_2 0
q_4_2_3 0
q_4_2_4 0
q_4_2_5 0
q_4_3_0 0
q_4_3_1 0
q_4_3_2 0
q_4_3_3 0
q_4_3_4 0
q_4_3_5 0
q_5_0_0 0
q_5_0_1 0
q_5_0_2 1.4099996939945939e+02
q_5_0_3 4.6999999999997357e+01
q_5_0_4 2.2192248039232250e-12
q_5_0_5 0
q_5_1_0 0
q_5_1_1 0
q_5_1_2 0
q_5_1_3 0
q_5_1_4 0
q_5_1_5 0
q_5_2_0 0
q_5_2_1 0
q_5_2_2 0
q_5_2_3 0
q_5_2_4 0
q_5_2_5 0
q_5_3_0 0
q_5_3_1 1.3563951168754234e-05
q_5_3_2 1.7036592522784327e-05
q_5_3_3 0
q_5_3_4 0
q_5_3_5 0
q_6_0_0 0
q_6_0_1 0
q_6_0_2 7.7999984947905247e+01
q_6_0_3 0
q_6_0_4 78
q_6_0_5 0
q_6_1_0 3.8999994421153239e+01
q_6_1_1 0
q_6_1_2 0
q_6_1_3 0
q_6_1_4 0
q_6_1_5 0
q_6_2_0 0
q_6_2_1 0
q_6_2_2 0
q_6_2_3 0
q_6_2_4 0
q_6_2_5 0
q_6_3_0 0
q_6_3_1 1.1255193523008833e-05
q_6_3_2 9.4244979891300318e-06
q_6_3_3 0
q_6_3_4 0
q_6_3_5 0
q_7_0_0 88.9999872687856
q_7_0_1 0
q_7_0_2 2.1507144000738460e-05
q_7_0_3 0
q_7_0_4 0
q_7_0_5 0
q_7_1_0 1.2753464398199471e-05
q_7_1_1 0
q_7_1_2 1.7799997849286879e+02
q_7_1_3 0
q_7_1_4 1.7799999999999653e+02
q_7_1_5 0
q_7_2_0 0
q_7_2_1 0
q_7_2_2 0
q_7_2_3 0
q_7_2_4 0
q_7_2_5 0
q_7_3_0 0
q_7_3_1 0
q_7_3_2 0
q_7_3_3 0
q_7_3_4 3.4638284303987171e-12
q_7_3_5 0
q_8_0_0 1.2694131064866138e-05
q_8_0_1 0
q_8_0_2 5.1759038807165330e-05
q_8_0_3 0
q_8_0_4 0
q_8_0_5 0
q_8_1_0 8.8999987305868927e+01
q_8_1_1 0
q_8_1_2 2.15071312532622e-05
q_8_1_3 0
q_8_1_4 0
q_8_1_5 0
q_8_2_0 0
q_8_2_1 0
q_8_2_2 1.7799992673382994e+02
q_8_2_3 0
q_8_2_4 1.7799999999999994e+02
q_8_2_5 0
q_8_3_0 0
q_8_3_1 0
q_8_3_2 0
q_8_3_3 0
q_8_3_4 0
q_8_3_5 0
q_9_0_0 7.6999988889103832e+01
q_9_0_1 0
q_9_0_2 0
q_9_0_3 0
q_9_0_4 0
q_9_0_5 0
q_9_1_0 1.1109357698921554e-05
q_9_1_1 0
q_9_1_2 0
q_9_1_3 0
q_9_1_4 0
q_9_1_5 0
q_9_2_0 0
q_9_2_1 0
q_9_2_2 0
q_9_2_3 0
q_9_2_4 0
q_9_2_5 0
q_9_3_0 0
q_9_3_1 0
q_9_3_2 0
q_9_3_3 231
q_9_3_4 0
q_9_3_5 0
q_10_0_0 0
q_10_0_1 0
q_10_0_2 0
q_10_0_3 0
q_10_0_4 95.9999999999946
q_10_0_5 0
q_10_1_0 0
q_10_1_1 0
q_10_1_2 0
q_10_1_3 0
q_10_1_4 5.4036775054555207e-12
q_10_1_5 0
q_10_2_0 0
q_10_2_1 192
q_10_2_2 0
q_10_2_3 192
q_10_2_4 0
q_10_2_5 0
q_10_3_0 0
q_10_3_1 3.0459036940118545e-11
q_10_3_2 0
q_10_3_3 0
q_10_3_4 0
q_10_3_5 0
y_0_0_0 1
y_0_0_1 1
y_0_0_2 1
y_0_0_3 1
y_0_0_4 1
y_0_0_5 0
y_0_1_0 1
y_0_1_1 1
y_0_1_2 1
y_0_1_3 1
y_0_1_4 1
y_0_1_5 0
y_0_2_0 0
y_0_2_1 1
y_0_2_2 0.999999589392303
y_0_2_3 1
y_0_2_4 1
y_0_2_5 0
y_0_3_0 0
y_0_3_1 1.43297511499905e-07
y_0_3_2 1.1982689723746931e-07
y_0_3_3 1
y_0_3_4 0
y_0_3_5 0
y_1_0_0 0
y_1_0_1 1
y_1_0_2 0
y_1_0_3 1
y_1_0_4 0
y_1_0_5 0
y_1_1_0 0
y_1_1_1 0
y_1_1_2 0
y_1_1_3 0
y_1_1_4 0
y_1_1_5 0
y_1_2_0 0
y_1_2_1 0
y_1_2_2 0
y_1_2_3 0
y_1_2_4 0
y_1_2_5 0
y_1_3_0 0
y_1_3_1 0
y_1_3_2 0
y_1_3_3 0
y_1_3_4 0
y_1_3_5 0
y_2_0_0 0
y_2_0_1 0
y_2_0_2 0
y_2_0_3 0
y_2_0_4 0
y_2_0_5 0
y_2_1_0 0
y_2_1_1 1
y_2_1_2 0
y_2_1_3 1
y_2_1_4 0
y_2_1_5 0
y_2_2_0 0
y_2_2_1 0
y_2_2_2 0
y_2_2_3 0
y_2_2_4 0
y_2_2_5 0
y_2_3_0 0
y_2_3_1 0
y_2_3_2 0
y_2_3_3 0
y_2_3_4 0
y_2_3_5 0
y_3_0_0 0
y_3_0_1 0
y_3_0_2 0
y_3_0_3 0
y_3_0_4 0
y_3_0_5 0
y_3_1_0 0
y_3_1_1 0
y_3_1_2 0
y_3_1_3 0
y_3_1_4 0
y_3_1_5 0
y_3_2_0 0
y_3_2_1 1
y_3_2_2 0
y_3_2_3 1
y_3_2_4 0
y_3_2_5 0
y_3_3_0 0
y_3_3_1 0
y_3_3_2 0
y_3_3_3 0
y_3_3_4 0
y_3_3_5 0
y_4_0_0 0
y_4_0_1 1
y_4_0_2 0
y_4_0_3 1
y_4_0_4 1
y_4_0_5 0
y_4_1_0 0
y_4_1_1 0
y_4_1_2 0
y_4_1_3 0
y_4_1_4 0
y_4_1_5 0
y_4_2_0 0
y_4_2_1 0
y_4_2_2 0
y_4_2_3 0
y_4_2_4 0
y_4_2_5 0
y_4_3_0 0
y_4_3_1 0
y_4_3_2 0
y_4_3_3 0
y_4_3_4 0
y_4_3_5 0
y_5_0_0 0
y_5_0_1 0
y_5_0_2 9.9999987918325617e-01
y_5_0_3 1
y_5_0_4 0
y_5_0_5 0
y_5_1_0 0
y_5_1_1 0
y_5_1_2 0
y_5_1_3 0
y_5_1_4 0
y_5_1_5 0
y_5_2_0 0
y_5_2_1 0
y_5_2_2 0
y_5_2_3 0
y_5_2_4 0
y_5_2_5 0
y_5_3_0 0
y_5_3_1 1.4424416136972589e-07
y_5_3_2 1.2079143633180372e-07
y_5_3_3 0
y_5_3_4 0
y_5_3_5 0
y_6_0_0 0
y_6_0_1 0
y_6_0_2 9.9999987918734767e-01
y_6_0_3 0
y_6_0_4 1
y_6_0_5 0
y_6_1_0 9.9999985695264715e-01
y_6_1_1 0
y_6_1_2 0
y_6_1_3 0
y_6_1_4 0
y_6_1_5 0
y_6_2_0 0
y_6_2_1 0
y_6_2_2 0
y_6_2_3 0
y_6_2_4 0
y_6_2_5 0
y_6_3_0 0
y_6_3_1 1.4423325029498502e-07
y_6_3_2 1.2076279473243630e-07
y_6_3_3 0
y_6_3_4 0
y_6_3_5 0
y_7_0_0 9.9999985695264726e-01
y_7_0_1 0
y_7_0_2 1.2080792153281942e-07
y_7_0_3 0
y_7_0_4 0
y_7_0_5 0
y_7_1_0 1.4329735278875811e-07
y_7_1_1 0
y_7_1_2 9.9999987919839251e-01
y_7_1_3 0
y_7_1_4 1
y_7_1_5 0
y_7_2_0 0
y_7_2_1 0
y_7_2_2 0
y_7_2_3 0
y_7_2_4 0
y_7_2_5 0
y_7_3_0 0
y_7_3_1 0
y_7_3_2 0
y_7_3_3 0
y_7_3_4 0
y_7_3_5 0
y_8_0_0 1.4263068612209144e-07
y_8_0_1 0
y_8_0_2 2.9075302700654683e-07
y_8_0_3 0
y_8_0_4 0
y_8_0_5 0
y_8_1_0 9.9999985736931385e-01
y_8_1_1 0
y_8_1_2 1.2079849018686629e-07
y_8_1_3 0
y_8_1_4 0
y_8_1_5 0
y_8_2_0 0
y_8_2_1 0
y_8_2_2 9.9999958845650849e-01
y_8_2_3 0
y_8_2_4 1
y_8_2_5 0
y_8_3_0 0
y_8_3_1 0
y_8_3_2 0
y_8_3_3 0
y_8_3_4 0
y_8_3_5 0
y_9_0_0 9.9999985570264727e-01
y_9_0_1 0
y_9_0_2 0
y_9_0_3 0
y_9_0_4 0
y_9_0_5 0
y_9_1_0 1.4427737271326693e-07
y_9_1_1 0
y_9_1_2 0
y_9_1_3 0
y_9_1_4 0
y_9_1_5 0
y_9_2_0 0
y_9_2_1 0
y_9_2_2 0
y_9_2_3 0
y_9_2_4 0
y_9_2_5 0
y_9_3_0 0
y_9_3_1 0
y_9_3_2 0
y_9_3_3 1
y_9_3_4 0
y_9_3_5 0
y_10_0_0 0
y_10_0_1 0
y_10_0_2 0
y_10_0_3 0
y_10_0_4 1
y_10_0_5 0
y_10_1_0 0
y_10_1_1 0
y_10_1_2 0
y_10_1_3 0
y_10_1_4 0
y_10_1_5 0
y_10_2_0 0
y_10_2_1 1
y_10_2_2 0
y_10_2_3 1
y_10_2_4 0
y_10_2_5 0
y_10_3_0 0
y_10_3_1 0
y_10_3_2 0
y_10_3_3 0
y_10_3_4 0
y_10_3_5 0
x_0_1_0_0 0
x_0_1_0_1 1
x_0_1_0_2 0
x_0_1_0_3 1
x_0_1_0_4 0
x_0_1_0_5 0
x_0_1_1_0 0
x_0_1_1_1 0
x_0_1_1_2 0
x_0_1_1_3 0
x_0_1_1_4 0
x_0_1_1_5 0
x_0_1_2_0 0
x_0_1_2_1 0
x_0_1_2_2 0
x_0_1_2_3 0
x_0_1_2_4 0
x_0_1_2_5 0
x_0_1_3_0 0
x_0_1_3_1 0
x_0_1_3_2 0
x_0_1_3_3 0
x_0_1_3_4 0
x_0_1_3_5 0
x_0_2_0_0 0
x_0_2_0_1 0
x_0_2_0_2 0
x_0_2_0_3 0
x_0_2_0_4 0
x_0_2_0_5 0
x_0_2_1_0 0
x_0_2_1_1 2
x_0_2_1_2 0
x_0_2_1_3 2
x_0_2_1_4 0
x_0_2_1_5 0
x_0_2_2_0 0
x_0_2_2_1 0
x_0_2_2_2 0
x_0_2_2_3 0
x_0_2_2_4 0
x_0_2_2_5 0
x_0_2_3_0 0
x_0_2_3_1 0
x_0_2_3_2 0
x_0_2_3_3 0
x_0_2_3_4 0
x_0_2_3_5 0
x_0_3_0_0 0
x_0_3_0_1 0
x_0_3_0_2 0
x_0_3_0_3 0
x_0_3_0_4 0
x_0_3_0_5 0
x_0_3_1_0 0
x_0_3_1_1 0
x_0_3_1_2 0
x_0_3_1_3 0
x_0_3_1_4 0
x_0_3_1_5 0
x_0_3_2_0 0
x_0_3_2_1 1
x_0_3_2_2 0
x_0_3_2_3 1
x_0_3_2_4 0
x_0_3_2_5 0
x_0_3_3_0 0
x_0_3_3_1 0
x_0_3_3_2 0
x_0_3_3_3 0
x_0_3_3_4 0
x_0_3_3_5 0
x_0_4_0_0 0
x_0_4_0_1 1
x_0_4_0_2 0
x_0_4_0_3 0
x_0_4_0_4 0
x_0_4_0_5 0
x_0_4_1_0 0
x_0_4_1_1 0
x_0_4_1_2 0
x_0_4_1_3 0
x_0_4_1_4 0
x_0_4_1_5 0
x_0_4_2_0 0
x_0_4_2_1 0
x_0_4_2_2 0
x_0_4_2_3 0
x_0_4_2_4 0
x_0_4_2_5 0
x_0_4_3_0 0
x_0_4_3_1 0
x_0_4_3_2 0
x_0_4_3_3 0
x_0_4_3_4 0
x_0_4_3_5 0
x_0_5_0_0 0
x_0_5_0_1 0
x_0_5_0_2 9.9999987922347833e-01
x_0_5_0_3 1
x_0_5_0_4 0
x_0_5_0_5 0
x_0_5_1_0 0
x_0_5_1_1 0
x_0_5_1_2 0
x_0_5_1_3 0
x_0_5_1_4 0
x_0_5_1_5 0
x_0_5_2_0 0
x_0_5_2_1 0
x_0_5_2_2 0
x_0_5_2_3 0
x_0_5_2_4 0
x_0_5_2_5 0
x_0_5_3_0 0
x_0_5_3_1 1.4169096988036413e-07
x_0_5_3_2 1.1742264192557050e-07
x_0_5_3_3 0
x_0_5_3_4 0
x_0_5_3_5 0
x_0_6_0_0 0
x_0_6_0_1 0
x_0_6_0_2 9.9999958843370917e-01
x_0_6_0_3 0
x_0_6_0_4 1
x_0_6_0_5 0
x_0_6_1_0 9.9999985574443540e-01
x_0_6_1_1 0
x_0_6_1_2 0
x_0_6_1_3 0
x_0_6_1_4 0
x_0_6_1_5 0
x_0_6_2_0 0
x_0_6_2_1 0
x_0_6_2_2 0
x_0_6_2_3 0
x_0_6_2_4 0
x_0_6_2_5 0
x_0_6_3_0 0
x_0_6_3_1 1.4290373583781105e-07
x_0_6_3_2 1.2023115254936811e-07
x_0_6_3_3 0
x_0_6_3_4 0
x_0_6_3_5 0
x_0_7_0_0 9.9999985574186379e-01
x_0_7_0_1 0
x_0_7_0_2 2.3956169557263325e-07
x_0_7_0_3 0
x_0_7_0_4 0
x_0_7_0_5 0
x_0_7_1_0 1.4258889785574286e-07
x_0_7_1_1 0
x_0_7_1_2 1.9999997583860565e+00
x_0_7_1_3 0
x_0_7_1_4 2
x_0_7_1_5 0
x_0_7_2_0 0
x_0_7_2_1 0
x_0_7_2_2 0
x_0_7_2_3 0
x_0_7_2_4 0
x_0_7_2_5 0
x_0_7_3_0 0
x_0_7_3_1 0
x_0_7_3_2 0
x_0_7_3_3 0
x_0_7_3_4 0
x_0_7_3_5 0
x_0_8_0_0 2.8688882223012240e-07
x_0_8_0_1 0
x_0_8_0_2 2.9078111689418726e-07
x_0_8_0_3 0
x_0_8_0_4 0
x_0_8_0_5 0
x_0_8_1_0 9.9999985576239137e-01
x_0_8_1_1 0
x_0_8_1_2 2.3994727680161969e-07
x_0_8_1_3 0
x_0_8_1_4 0
x_0_8_1_5 0
x_0_8_2_0 0
x_0_8_2_1 0
x_0_8_2_2 1.9999991768443504e+00
x_0_8_2_3 0
x_0_8_2_4 2
x_0_8_2_5 0
x_0_8_3_0 0
x_0_8_3_1 0
x_0_8_3_2 0
x_0_8_3_3 0
x_0_8_3_4 0
x_0_8_3_5 0
x_0_9_0_0 9.9999985573941286e-01
x_0_9_0_1 0
x_0_9_0_2 0
x_0_9_0_3 0
x_0_9_0_4 0
x_0_9_0_5 0
x_0_9_1_0 1.4423760862671288e-07
x_0_9_1_1 0
x_0_9_1_2 0
x_0_9_1_3 0
x_0_9_1_4 0
x_0_9_1_5 0
x_0_9_2_0 0
x_0_9_2_1 0
x_0_9_2_2 0
x_0_9_2_3 0
x_0_9_2_4 0
x_0_9_2_5 0
x_0_9_3_0 0
x_0_9_3_1 0
x_0_9_3_2 0
x_0_9_3_3 2
x_0_9_3_4 0
x_0_9_3_5 0
x_0_10_0_0 0
x_0_10_0_1 0
x_0_10_0_2 0
x_0_10_0_3 0
x_0_10_0_4 1
x_0_10_0_5 0
x_0_10_1_0 0
x_0_10_1_1 0
x_0_10_1_2 0
x_0_10_1_3 0
x_0_10_1_4 0
x_0_10_1_5 0
x_0_10_2_0 0
x_0_10_2_1 1
x_0_10_2_2 0
x_0_10_2_3 1
x_0_10_2_4 0
x_0_10_2_5 0
x_0_10_3_0 0
x_0_10_3_1 3.1728163479290152e-13
x_0_10_3_2 0
x_0_10_3_3 0
x_0_10_3_4 0
x_0_10_3_5 0
x_1_2_0_0 0
x_1_2_0_1 0
x_1_2_0_2 0
x_1_2_0_3 0
x_1_2_0_4 0
x_1_2_0_5 0
x_1_2_1_0 0
x_1_2_1_1 0
x_1_2_1_2 0
x_1_2_1_3 0
x_1_2_1_4 0
x_1_2_1_5 0
x_1_2_2_0 0
x_1_2_2_1 0
x_1_2_2_2 0
x_1_2_2_3 0
x_1_2_2_4 0
x_1_2_2_5 0
x_1_2_3_0 0
x_1_2_3_1 0
x_1_2_3_2 0
x_1_2_3_3 0
x_1_2_3_4 0
x_1_2_3_5 0
x_1_3_0_0 0
x_1_3_0_1 0
x_1_3_0_2 0
x_1_3_0_3 0
x_1_3_0_4 0
x_1_3_0_5 0
x_1_3_1_0 0
x_1_3_1_1 0
x_1_3_1_2 0
x_1_3_1_3 0
x_1_3_1_4 0
x_1_3_1_5 0
x_1_3_2_0 0
x_1_3_2_1 0
x_1_3_2_2 0
x_1_3_2_3 0
x_1_3_2_4 0
x_1_3_2_5 0
x_1_3_3_0 0
x_1_3_3_1 0
x_1_3_3_2 0
x_1_3_3_3 0
x_1_3_3_4 0
x_1_3_3_5 0
x_1_4_0_0 0
x_1_4_0_1 1
x_1_4_0_2 0
x_1_4_0_3 1
x_1_4_0_4 0
x_1_4_0_5 0
x_1_4_1_0 0
x_1_4_1_1 0
x_1_4_1_2 0
x_1_4_1_3 0
x_1_4_1_4 0
x_1_4_1_5 0
x_1_4_2_0 0
x_1_4_2_1 0
x_1_4_2_2 0
x_1_4_2_3 0
x_1_4_2_4 0
x_1_4_2_5 0
x_1_4_3_0 0
x_1_4_3_1 0
x_1_4_3_2 0
x_1_4_3_3 0
x_1_4_3_4 0
x_1_4_3_5 0
x_1_5_0_0 0
x_1_5_0_1 0
x_1_5_0_2 0
x_1_5_0_3 0
x_1_5_0_4 0
x_1_5_0_5 0
x_1_5_1_0 0
x_1_5_1_1 0
x_1_5_1_2 0
x_1_5_1_3 0
x_1_5_1_4 0
x_1_5_1_5 0
x_1_5_2_0 0
x_1_5_2_1 0
x_1_5_2_2 0
x_1_5_2_3 0
x_1_5_2_4 0
x_1_5_2_5 0
x_1_5_3_0 0
x_1_5_3_1 0
x_1_5_3_2 0
x_1_5_3_3 0
x_1_5_3_4 0
x_1_5_3_5 0
x_1_6_0_0 0
x_1_6_0_1 0
x_1_6_0_2 0
x_1_6_0_3 0
x_1_6_0_4 0
x_1_6_0_5 0
x_1_6_1_0 0
x_1_6_1_1 0
x_1_6_1_2 0
x_1_6_1_3 0
x_1_6_1_4 0
x_1_6_1_5 0
x_1_6_2_0 0
x_1_6_2_1 0
x_1_6_2_2 0
x_1_6_2_3 0
x_1_6_2_4 0
x_1_6_2_5 0
x_1_6_3_0 0
x_1_6_3_1 0
x_1_6_3_2 0
x_1_6_3_3 0
x_1_6_3_4 0
x_1_6_3_5 0
x_1_7_0_0 0
x_1_7_0_1 0
x_1_7_0_2 0
x_1_7_0_3 0
x_1_7_0_4 0
x_1_7_0_5 0
x_1_7_1_0 0
x_1_7_1_1 0
x_1_7_1_2 0
x_1_7_1_3 0
x_1_7_1_4 0
x_1_7_1_5 0
x_1_7_2_0 0
x_1_7_2_1 0
x_1_7_2_2 0
x_1_7_2_3 0
x_1_7_2_4 0
x_1_7_2_5 0
x_1_7_3_0 0
x_1_7_3_1 0
x_1_7_3_2 0
x_1_7_3_3 0
x_1_7_3_4 0
x_1_7_3_5 0
x_1_8_0_0 0
x_1_8_0_1 0
x_1_8_0_2 0
x_1_8_0_3 0
x_1_8_0_4 0
x_1_8_0_5 0
x_1_8_1_0 0
x_1_8_1_1 0
x_1_8_1_2 0
x_1_8_1_3 0
x_1_8_1_4 0
x_1_8_1_5 0
x_1_8_2_0 0
x_1_8_2_1 0
x_1_8_2_2 0
x_1_8_2_3 0
x_1_8_2_4 0
x_1_8_2_5 0
x_1_8_3_0 0
x_1_8_3_1 0
x_1_8_3_2 0
x_1_8_3_3 0
x_1_8_3_4 0
x_1_8_3_5 0
x_1_9_0_0 0
x_1_9_0_1 0
x_1_9_0_2 0
x_1_9_0_3 0
x_1_9_0_4 0
x_1_9_0_5 0
x_1_9_1_0 0
x_1_9_1_1 0
x_1_9_1_2 0
x_1_9_1_3 0
x_1_9_1_4 0
x_1_9_1_5 0
x_1_9_2_0 0
x_1_9_2_1 0
x_1_9_2_2 0
x_1_9_2_3 0
x_1_9_2_4 0
x_1_9_2_5 0
x_1_9_3_0 0
x_1_9_3_1 0
x_1_9_3_2 0
x_1_9_3_3 0
x_1_9_3_4 0
x_1_9_3_5 0
x_1_10_0_0 0
x_1_10_0_1 0
x_1_10_0_2 0
x_1_10_0_3 0
x_1_10_0_4 0
x_1_10_0_5 0
x_1_10_1_0 0
x_1_10_1_1 0
x_1_10_1_2 0
x_1_10_1_3 0
x_1_10_1_4 0
x_1_10_1_5 0
x_1_10_2_0 0
x_1_10_2_1 0
x_1_10_2_2 0
x_1_10_2_3 0
x_1_10_2_4 0
x_1_10_2_5 0
x_1_10_3_0 0
x_1_10_3_1 0
x_1_10_3_2 0
x_1_10_3_3 0
x_1_10_3_4 0
x_1_10_3_5 0
x_2_3_0_0 0
x_2_3_0_1 0
x_2_3_0_2 0
x_2_3_0_3 0
x_2_3_0_4 0
x_2_3_0_5 0
x_2_3_1_0 0
x_2_3_1_1 0
x_2_3_1_2 0
x_2_3_1_3 0
x_2_3_1_4 0
x_2_3_1_5 0
x_2_3_2_0 0
x_2_3_2_1 0
x_2_3_2_2 0
x_2_3_2_3 0
x_2_3_2_4 0
x_2_3_2_5 0
x_2_3_3_0 0
x_2_3_3_1 0
x_2_3_3_2 0
x_2_3_3_3 0
x_2_3_3_4 0
x_2_3_3_5 0
x_2_4_0_0 0
x_2_4_0_1 0
x_2_4_0_2 0
x_2_4_0_3 0
x_2_4_0_4 0
x_2_4_0_5 0
x_2_4_1_0 0
x_2_4_1_1 0
x_2_4_1_2 0
x_2_4_1_3 0
x_2_4_1_4 0
x_2_4_1_5 0
x_2_4_2_0 0
x_2_4_2_1 0
x_2_4_2_2 0
x_2_4_2_3 0
x_2_4_2_4 0
x_2_4_2_5 0
x_2_4_3_0 0
x_2_4_3_1 0
x_2_4_3_2 0
x_2_4_3_3 0
x_2_4_3_4 0
x_2_4_3_5 0
x_2_5_0_0 0
x_2_5_0_1 0
x_2_5_0_2 0
x_2_5_0_3 0
x_2_5_0_4 0
x_2_5_0_5 0
x_2_5_1_0 0
x_2_5_1_1 0
x_2_5_1_2 0
x_2_5_1_3 0
x_2_5_1_4 0
x_2_5_1_5 0
x_2_5_2_0 0
x_2_5_2_1 0
x_2_5_2_2 0
x_2_5_2_3 0
x_2_5_2_4 0
x_2_5_2_5 0
x_2_5_3_0 0
x_2_5_3_1 0
x_2_5_3_2 0
x_2_5_3_3 0
x_2_5_3_4 0
x_2_5_3_5 0
x_2_6_0_0 0
x_2_6_0_1 0
x_2_6_0_2 0
x_2_6_0_3 0
x_2_6_0_4 0
x_2_6_0_5 0
x_2_6_1_0 0
x_2_6_1_1 0
x_2_6_1_2 0
x_2_6_1_3 0
x_2_6_1_4 0
x_2_6_1_5 0
x_2_6_2_0 0
x_2_6_2_1 0
x_2_6_2_2 0
x_2_6_2_3 0
x_2_6_2_4 0
x_2_6_2_5 0
x_2_6_3_0 0
x_2_6_3_1 0
x_2_6_3_2 0
x_2_6_3_3 0
x_2_6_3_4 0
x_2_6_3_5 0
x_2_7_0_0 0
x_2_7_0_1 0
x_2_7_0_2 0
x_2_7_0_3 0
x_2_7_0_4 0
x_2_7_0_5 0
x_2_7_1_0 0
x_2_7_1_1 0
x_2_7_1_2 0
x_2_7_1_3 0
x_2_7_1_4 0
x_2_7_1_5 0
x_2_7_2_0 0
x_2_7_2_1 0
x_2_7_2_2 0
x_2_7_2_3 0
x_2_7_2_4 0
x_2_7_2_5 0
x_2_7_3_0 0
x_2_7_3_1 0
x_2_7_3_2 0
x_2_7_3_3 0
x_2_7_3_4 0
x_2_7_3_5 0
x_2_8_0_0 0
x_2_8_0_1 0
x_2_8_0_2 0
x_2_8_0_3 0
x_2_8_0_4 0
x_2_8_0_5 0
x_2_8_1_0 0
x_2_8_1_1 0
x_2_8_1_2 0
x_2_8_1_3 0
x_2_8_1_4 0
x_2_8_1_5 0
x_2_8_2_0 0
x_2_8_2_1 0
x_2_8_2_2 0
x_2_8_2_3 0
x_2_8_2_4 0
x_2_8_2_5 0
x_2_8_3_0 0
x_2_8_3_1 0
x_2_8_3_2 0
x_2_8_3_3 0
x_2_8_3_4 0
x_2_8_3_5 0
x_2_9_0_0 0
x_2_9_0_1 0
x_2_9_0_2 0
x_2_9_0_3 0
x_2_9_0_4 0
x_2_9_0_5 0
x_2_9_1_0 0
x_2_9_1_1 0
x_2_9_1_2 0
x_2_9_1_3 0
x_2_9_1_4 0
x_2_9_1_5 0
x_2_9_2_0 0
x_2_9_2_1 0
x_2_9_2_2 0
x_2_9_2_3 0
x_2_9_2_4 0
x_2_9_2_5 0
x_2_9_3_0 0
x_2_9_3_1 0
x_2_9_3_2 0
x_2_9_3_3 0
x_2_9_3_4 0
x_2_9_3_5 0
x_2_10_0_0 0
x_2_10_0_1 0
x_2_10_0_2 0
x_2_10_0_3 0
x_2_10_0_4 0
x_2_10_0_5 0
x_2_10_1_0 0
x_2_10_1_1 0
x_2_10_1_2 0
x_2_10_1_3 0
x_2_10_1_4 0
x_2_10_1_5 0
x_2_10_2_0 0
x_2_10_2_1 0
x_2_10_2_2 0
x_2_10_2_3 0
x_2_10_2_4 0
x_2_10_2_5 0
x_2_10_3_0 0
x_2_10_3_1 0
x_2_10_3_2 0
x_2_10_3_3 0
x_2_10_3_4 0
x_2_10_3_5 0
x_3_4_0_0 0
x_3_4_0_1 0
x_3_4_0_2 0
x_3_4_0_3 0
x_3_4_0_4 0
x_3_4_0_5 0
x_3_4_1_0 0
x_3_4_1_1 0
x_3_4_1_2 0
x_3_4_1_3 0
x_3_4_1_4 0
x_3_4_1_5 0
x_3_4_2_0 0
x_3_4_2_1 0
x_3_4_2_2 0
x_3_4_2_3 0
x_3_4_2_4 0
x_3_4_2_5 0
x_3_4_3_0 0
x_3_4_3_1 0
x_3_4_3_2 0
x_3_4_3_3 0
x_3_4_3_4 0
x_3_4_3_5 0
x_3_5_0_0 0
x_3_5_0_1 0
x_3_5_0_2 0
x_3_5_0_3 0
x_3_5_0_4 0
x_3_5_0_5 0
x_3_5_1_0 0
x_3_5_1_1 0
x_3_5_1_2 0
x_3_5_1_3 0
x_3_5_1_4 0
x_3_5_1_5 0
x_3_5_2_0 0
x_3_5_2_1 0
x_3_5_2_2 0
x_3_5_2_3 0
x_3_5_2_4 0
x_3_5_2_5 0
x_3_5_3_0 0
x_3_5_3_1 0
x_3_5_3_2 0
x_3_5_3_3 0
x_3_5_3_4 0
x_3_5_3_5 0
x_3_6_0_0 0
x_3_6_0_1 0
x_3_6_0_2 0
x_3_6_0_3 0
x_3_6_0_4 0
x_3_6_0_5 0
x_3_6_1_0 0
x_3_6_1_1 0
x_3_6_1_2 0
x_3_6_1_3 0
x_3_6_1_4 0
x_3_6_1_5 0
x_3_6_2_0 0
x_3_6_2_1 0
x_3_6_2_2 0
x_3_6_2_3 0
x_3_6_2_4 0
x_3_6_2_5 0
x_3_6_3_0 0
x_3_6_3_1 0
x_3_6_3_2 0
x_3_6_3_3 0
x_3_6_3_4 0
x_3_6_3_5 0
x_3_7_0_0 0
x_3_7_0_1 0
x_3_7_0_2 0
x_3_7_0_3 0
x_3_7_0_4 0
x_3_7_0_5 0
x_3_7_1_0 0
x_3_7_1_1 0
x_3_7_1_2 0
x_3_7_1_3 0
x_3_7_1_4 0
x_3_7_1_5 0
x_3_7_2_0 0
x_3_7_2_1 0
x_3_7_2_2 0
x_3_7_2_3 0
x_3_7_2_4 0
x_3_7_2_5 0
x_3_7_3_0 0
x_3_7_3_1 0
x_3_7_3_2 0
x_3_7_3_3 0
x_3_7_3_4 0
x_3_7_3_5 0
x_3_8_0_0 0
x_3_8_0_1 0
x_3_8_0_2 0
x_3_8_0_3 0
x_3_8_0_4 0
x_3_8_0_5 0
x_3_8_1_0 0
x_3_8_1_1 0
x_3_8_1_2 0
x_3_8_1_3 0
x_3_8_1_4 0
x_3_8_1_5 0
x_3_8_2_0 0
x_3_8_2_1 0
x_3_8_2_2 0
x_3_8_2_3 0
x_3_8_2_4 0
x_3_8_2_5 0
x_3_8_3_0 0
x_3_8_3_1 0
x_3_8_3_2 0
x_3_8_3_3 0
x_3_8_3_4 0
x_3_8_3_5 0
x_3_9_0_0 0
x_3_9_0_1 0
x_3_9_0_2 0
x_3_9_0_3 0
x_3_9_0_4 0
x_3_9_0_5 0
x_3_9_1_0 0
x_3_9_1_1 0
x_3_9_1_2 0
x_3_9_1_3 0
x_3_9_1_4 0
x_3_9_1_5 0
x_3_9_2_0 0
x_3_9_2_1 0
x_3_9_2_2 0
x_3_9_2_3 0
x_3_9_2_4 0
x_3_9_2_5 0
x_3_9_3_0 0
x_3_9_3_1 0
x_3_9_3_2 0
x_3_9_3_3 0
x_3_9_3_4 0
x_3_9_3_5 0
x_3_10_0_0 0
x_3_10_0_1 0
x_3_10_0_2 0
x_3_10_0_3 0
x_3_10_0_4 0
x_3_10_0_5 0
x_3_10_1_0 0
x_3_10_1_1 0
x_3_10_1_2 0
x_3_10_1_3 0
x_3_10_1_4 0
x_3_10_1_5 0
x_3_10_2_0 0
x_3_10_2_1 1
x_3_10_2_2 0
x_3_10_2_3 1
x_3_10_2_4 0
x_3_10_2_5 0
x_3_10_3_0 0
x_3_10_3_1 0
x_3_10_3_2 0
x_3_10_3_3 0
x_3_10_3_4 0
x_3_10_3_5 0
x_4_5_0_0 0
x_4_5_0_1 0
x_4_5_0_2 0
x_4_5_0_3 1
x_4_5_0_4 0
x_4_5_0_5 0
x_4_5_1_0 0
x_4_5_1_1 0
x_4_5_1_2 0
x_4_5_1_3 0
x_4_5_1_4 0
x_4_5_1_5 0
x_4_5_2_0 0
x_4_5_2_1 0
x_4_5_2_2 0
x_4_5_2_3 0
x_4_5_2_4 0
x_4_5_2_5 0
x_4_5_3_0 0
x_4_5_3_1 0
x_4_5_3_2 0
x_4_5_3_3 0
x_4_5_3_4 0
x_4_5_3_5 0
x_4_6_0_0 0
x_4_6_0_1 0
x_4_6_0_2 0
x_4_6_0_3 0
x_4_6_0_4 1
x_4_6_0_5 0
x_4_6_1_0 0
x_4_6_1_1 0
x_4_6_1_2 0
x_4_6_1_3 0
x_4_6_1_4 0
x_4_6_1_5 0
x_4_6_2_0 0
x_4_6_2_1 0
x_4_6_2_2 0
x_4_6_2_3 0
x_4_6_2_4 0
x_4_6_2_5 0
x_4_6_3_0 0
x_4_6_3_1 0
x_4_6_3_2 0
x_4_6_3_3 0
x_4_6_3_4 0
x_4_6_3_5 0
x_4_7_0_0 0
x_4_7_0_1 0
x_4_7_0_2 0
x_4_7_0_3 0
x_4_7_0_4 0
x_4_7_0_5 0
x_4_7_1_0 0
x_4_7_1_1 0
x_4_7_1_2 0
x_4_7_1_3 0
x_4_7_1_4 0
x_4_7_1_5 0
x_4_7_2_0 0
x_4_7_2_1 0
x_4_7_2_2 0
x_4_7_2_3 0
x_4_7_2_4 0
x_4_7_2_5 0
x_4_7_3_0 0
x_4_7_3_1 0
x_4_7_3_2 0
x_4_7_3_3 0
x_4_7_3_4 0
x_4_7_3_5 0
x_4_8_0_0 0
x_4_8_0_1 0
x_4_8_0_2 0
x_4_8_0_3 0
x_4_8_0_4 0
x_4_8_0_5 0
x_4_8_1_0 0
x_4_8_1_1 0
x_4_8_1_2 0
x_4_8_1_3 0
x_4_8_1_4 0
x_4_8_1_5 0
x_4_8_2_0 0
x_4_8_2_1 0
x_4_8_2_2 0
x_4_8_2_3 0
x_4_8_2_4 0
x_4_8_2_5 0
x_4_8_3_0 0
x_4_8_3_1 0
x_4_8_3_2 0
x_4_8_3_3 0
x_4_8_3_4 0
x_4_8_3_5 0
x_4_9_0_0 0
x_4_9_0_1 0
x_4_9_0_2 0
x_4_9_0_3 0
x_4_9_0_4 0
x_4_9_0_5 0
x_4_9_1_0 0
x_4_9_1_1 0
x_4_9_1_2 0
x_4_9_1_3 0
x_4_9_1_4 0
x_4_9_1_5 0
x_4_9_2_0 0
x_4_9_2_1 0
x_4_9_2_2 0
x_4_9_2_3 0
x_4_9_2_4 0
x_4_9_2_5 0
x_4_9_3_0 0
x_4_9_3_1 0
x_4_9_3_2 0
x_4_9_3_3 0
x_4_9_3_4 0
x_4_9_3_5 0
x_4_10_0_0 0
x_4_10_0_1 0
x_4_10_0_2 0
x_4_10_0_3 0
x_4_10_0_4 1
x_4_10_0_5 0
x_4_10_1_0 0
x_4_10_1_1 0
x_4_10_1_2 0
x_4_10_1_3 0
x_4_10_1_4 0
x_4_10_1_5 0
x_4_10_2_0 0
x_4_10_2_1 0
x_4_10_2_2 0
x_4_10_2_3 0
x_4_10_2_4 0
x_4_10_2_5 0
x_4_10_3_0 0
x_4_10_3_1 0
x_4_10_3_2 0
x_4_10_3_3 0
x_4_10_3_4 0
x_4_10_3_5 0
x_5_6_0_0 0
x_5_6_0_1 0
x_5_6_0_2 9.9999987922381151e-01
x_5_6_0_3 0
x_5_6_0_4 0
x_5_6_0_5 0
x_5_6_1_0 0
x_5_6_1_1 0
x_5_6_1_2 0
x_5_6_1_3 0
x_5_6_1_4 0
x_5_6_1_5 0
x_5_6_2_0 0
x_5_6_2_1 0
x_5_6_2_2 0
x_5_6_2_3 0
x_5_6_2_4 0
x_5_6_2_5 0
x_5_6_3_0 0
x_5_6_3_1 1.4429735285908762e-07
x_5_6_3_2 1.2082689740470363e-07
x_5_6_3_3 0
x_5_6_3_4 0
x_5_6_3_5 0
x_5_7_0_0 0
x_5_7_0_1 0
x_5_7_0_2 0
x_5_7_0_3 0
x_5_7_0_4 0
x_5_7_0_5 0
x_5_7_1_0 0
x_5_7_1_1 0
x_5_7_1_2 0
x_5_7_1_3 0
x_5_7_1_4 0
x_5_7_1_5 0
x_5_7_2_0 0
x_5_7_2_1 0
x_5_7_2_2 0
x_5_7_2_3 0
x_5_7_2_4 0
x_5_7_2_5 0
x_5_7_3_0 0
x_5_7_3_1 0
x_5_7_3_2 0
x_5_7_3_3 0
x_5_7_3_4 0
x_5_7_3_5 0
x_5_8_0_0 0
x_5_8_0_1 0
x_5_8_0_2 0
x_5_8_0_3 0
x_5_8_0_4 0
x_5_8_0_5 0
x_5_8_1_0 0
x_5_8_1_1 0
x_5_8_1_2 0
x_5_8_1_3 0
x_5_8_1_4 0
x_5_8_1_5 0
x_5_8_2_0 0
x_5_8_2_1 0
x_5_8_2_2 0
x_5_8_2_3 0
x_5_8_2_4 0
x_5_8_2_5 0
x_5_8_3_0 0
x_5_8_3_1 0
x_5_8_3_2 0
x_5_8_3_3 0
x_5_8_3_4 0
x_5_8_3_5 0
x_5_9_0_0 0
x_5_9_0_1 0
x_5_9_0_2 0
x_5_9_0_3 0
x_5_9_0_4 0
x_5_9_0_5 0
x_5_9_1_0 0
x_5_9_1_1 0
x_5_9_1_2 0
x_5_9_1_3 0
x_5_9_1_4 0
x_5_9_1_5 0
x_5_9_2_0 0
x_5_9_2_1 0
x_5_9_2_2 0
x_5_9_2_3 0
x_5_9_2_4 0
x_5_9_2_5 0
x_5_9_3_0 0
x_5_9_3_1 0
x_5_9_3_2 0
x_5_9_3_3 0
x_5_9_3_4 0
x_5_9_3_5 0
x_5_10_0_0 0
x_5_10_0_1 0
x_5_10_0_2 0
x_5_10_0_3 0
x_5_10_0_4 0
x_5_10_0_5 0
x_5_10_1_0 0
x_5_10_1_1 0
x_5_10_1_2 0
x_5_10_1_3 0
x_5_10_1_4 0
x_5_10_1_5 0
x_5_10_2_0 0
x_5_10_2_1 0
x_5_10_2_2 0
x_5_10_2_3 0
x_5_10_2_4 0
x_5_10_2_5 0
x_5_10_3_0 0
x_5_10_3_1 0
x_5_10_3_2 0
x_5_10_3_3 0
x_5_10_3_4 0
x_5_10_3_5 0
x_6_7_0_0 0
x_6_7_0_1 0
x_6_7_0_2 0
x_6_7_0_3 0
x_6_7_0_4 0
x_6_7_0_5 0
x_6_7_1_0 0
x_6_7_1_1 0
x_6_7_1_2 0
x_6_7_1_3 0
x_6_7_1_4 0
x_6_7_1_5 0
x_6_7_2_0 0
x_6_7_2_1 0
x_6_7_2_2 0
x_6_7_2_3 0
x_6_7_2_4 0
x_6_7_2_5 0
x_6_7_3_0 0
x_6_7_3_1 0
x_6_7_3_2 0
x_6_7_3_3 0
x_6_7_3_4 0
x_6_7_3_5 0
x_6_8_0_0 0
x_6_8_0_1 0
x_6_8_0_2 2.8821717462519427e-07
x_6_8_0_3 0
x_6_8_0_4 0
x_6_8_0_5 0
x_6_8_1_0 9.9999985575135575e-01
x_6_8_1_1 0
x_6_8_1_2 0
x_6_8_1_3 0
x_6_8_1_4 0
x_6_8_1_5 0
x_6_8_2_0 0
x_6_8_2_1 0
x_6_8_2_2 0
x_6_8_2_3 0
x_6_8_2_4 0
x_6_8_2_5 0
x_6_8_3_0 0
x_6_8_3_1 0
x_6_8_3_2 0
x_6_8_3_3 0
x_6_8_3_4 0
x_6_8_3_5 0
x_6_9_0_0 0
x_6_9_0_1 0
x_6_9_0_2 0
x_6_9_0_3 0
x_6_9_0_4 0
x_6_9_0_5 0
x_6_9_1_0 0
x_6_9_1_1 0
x_6_9_1_2 0
x_6_9_1_3 0
x_6_9_1_4 0
x_6_9_1_5 0
x_6_9_2_0 0
x_6_9_2_1 0
x_6_9_2_2 0
x_6_9_2_3 0
x_6_9_2_4 0
x_6_9_2_5 0
x_6_9_3_0 0
x_6_9_3_1 0
x_6_9_3_2 0
x_6_9_3_3 0
x_6_9_3_4 0
x_6_9_3_5 0
x_6_10_0_0 0
x_6_10_0_1 0
x_6_10_0_2 0
x_6_10_0_3 0
x_6_10_0_4 0
x_6_10_0_5 0
x_6_10_1_0 0
x_6_10_1_1 0
x_6_10_1_2 0
x_6_10_1_3 0
x_6_10_1_4 0
x_6_10_1_5 0
x_6_10_2_0 0
x_6_10_2_1 0
x_6_10_2_2 0
x_6_10_2_3 0
x_6_10_2_4 0
x_6_10_2_5 0
x_6_10_3_0 0
x_6_10_3_1 0
x_6_10_3_2 0
x_6_10_3_3 0
x_6_10_3_4 0
x_6_10_3_5 0
x_7_8_0_0 0
x_7_8_0_1 0
x_7_8_0_2 0
x_7_8_0_3 0
x_7_8_0_4 0
x_7_8_0_5 0
x_7_8_1_0 0
x_7_8_1_1 0
x_7_8_1_2 0
x_7_8_1_3 0
x_7_8_1_4 0
x_7_8_1_5 0
x_7_8_2_0 0
x_7_8_2_1 0
x_7_8_2_2 0
x_7_8_2_3 0
x_7_8_2_4 0
x_7_8_2_5 0
x_7_8_3_0 0
x_7_8_3_1 0
x_7_8_3_2 0
x_7_8_3_3 0
x_7_8_3_4 0
x_7_8_3_5 0
x_7_9_0_0 9.9999985577092632e-01
x_7_9_0_1 0
x_7_9_0_2 0
x_7_9_0_3 0
x_7_9_0_4 0
x_7_9_0_5 0
x_7_9_1_0 1.4200580772177334e-07
x_7_9_1_1 0
x_7_9_1_2 0
x_7_9_1_3 0
x_7_9_1_4 0
x_7_9_1_5 0
x_7_9_2_0 0
x_7_9_2_1 0
x_7_9_2_2 0
x_7_9_2_3 0
x_7_9_2_4 0
x_7_9_2_5 0
x_7_9_3_0 0
x_7_9_3_1 0
x_7_9_3_2 0
x_7_9_3_3 0
x_7_9_3_4 0
x_7_9_3_5 0
x_7_10_0_0 0
x_7_10_0_1 0
x_7_10_0_2 -6.3456326958580284e-13
x_7_10_0_3 0
x_7_10_0_4 0
x_7_10_0_5 0
x_7_10_1_0 0
x_7_10_1_1 0
x_7_10_1_2 0
x_7_10_1_3 0
x_7_10_1_4 0
x_7_10_1_5 0
x_7_10_2_0 0
x_7_10_2_1 0
x_7_10_2_2 0
x_7_10_2_3 0
x_7_10_2_4 0
x_7_10_2_5 0
x_7_10_3_0 0
x_7_10_3_1 0
x_7_10_3_2 0
x_7_10_3_3 0
x_7_10_3_4 0
x_7_10_3_5 0
x_8_9_0_0 0
x_8_9_0_1 0
x_8_9_0_2 0
x_8_9_0_3 0
x_8_9_0_4 0
x_8_9_0_5 0
x_8_9_1_0 0
x_8_9_1_1 0
x_8_9_1_2 0
x_8_9_1_3 0
x_8_9_1_4 0
x_8_9_1_5 0
x_8_9_2_0 0
x_8_9_2_1 0
x_8_9_2_2 0
x_8_9_2_3 0
x_8_9_2_4 0
x_8_9_2_5 0
x_8_9_3_0 0
x_8_9_3_1 0
x_8_9_3_2 0
x_8_9_3_3 0
x_8_9_3_4 0
x_8_9_3_5 0
x_8_10_0_0 0
x_8_10_0_1 0
x_8_10_0_2 0
x_8_10_0_3 0
x_8_10_0_4 0
x_8_10_0_5 0
x_8_10_1_0 0
x_8_10_1_1 0
x_8_10_1_2 0
x_8_10_1_3 0
x_8_10_1_4 0
x_8_10_1_5 0
x_8_10_2_0 0
x_8_10_2_1 0
x_8_10_2_2 0
x_8_10_2_3 0
x_8_10_2_4 0
x_8_10_2_5 0
x_8_10_3_0 0
x_8_10_3_1 0
x_8_10_3_2 0
x_8_10_3_3 0
x_8_10_3_4 0
x_8_10_3_5 0
x_9_10_0_0 0
x_9_10_0_1 0
x_9_10_0_2 0
x_9_10_0_3 0
x_9_10_0_4 0
x_9_10_0_5 0
x_9_10_1_0 0
x_9_10_1_1 0
x_9_10_1_2 0
x_9_10_1_3 0
x_9_10_1_4 0
x_9_10_1_5 0
x_9_10_2_0 0
x_9_10_2_1 0
x_9_10_2_2 0
x_9_10_2_3 0
x_9_10_2_4 0
x_9_10_2_5 0
x_9_10_3_0 0
x_9_10_3_1 0
x_9_10_3_2 0
x_9_10_3_3 0
x_9_10_3_4 0
x_9_10_3_5 0
